data;


param d:= 100;
param r:=5;
param p:=0.820000;
param M:=1000;
param U:=
         1         1        9.723371e-01
         2         1       -9.827333e-02
         3         1       -8.012628e-01
         4         1       -3.923501e-01
         5         1        2.792499e-01
         6         1       -1.290498e+00
         7         1        1.168228e+00
         8         1       -7.839245e-01
         9         1       -1.463969e+00
        10         1       -6.146477e-01
        11         1       -3.853012e-01
        12         1        1.085904e+00
        13         1       -2.314068e+00
        14         1       -2.983378e+00
        15         1        1.665004e+00
        16         1       -5.006706e-01
        17         1        6.175514e-02
        18         1       -8.250768e-01
        19         1       -3.083339e-01
        20         1       -9.870306e-02
        21         1        8.675247e-01
        22         1        8.129670e-01
        23         1       -8.414152e-02
        24         1        1.115375e+00
        25         1        1.283761e+00
        26         1        9.733402e-01
        27         1       -1.815664e-01
        28         1       -8.381972e-01
        29         1       -1.826291e+00
        30         1       -5.051715e-01
        31         1        1.391132e-01
        32         1        1.530919e+00
        33         1        1.714232e+00
        34         1        1.075370e+00
        35         1       -7.962756e-02
        36         1        7.390850e-01
        37         1       -4.055498e-01
        38         1        8.460001e-01
        39         1       -7.667749e-02
        40         1       -1.933666e+00
        41         1       -6.483022e-01
        42         1       -3.551627e-01
        43         1        3.229716e-01
        44         1       -4.158304e-02
        45         1        2.265808e-01
        46         1       -4.906984e-01
        47         1        7.332039e-01
        48         1        8.534201e-01
        49         1        8.804156e-01
        50         1        1.091561e+00
        51         1        8.793297e-01
        52         1       -8.785256e-01
        53         1        6.085317e-01
        54         1       -1.555682e+00
        55         1        1.491505e+00
        56         1       -6.019585e-01
        57         1       -3.690986e-02
        58         1       -1.874111e+00
        59         1        1.481389e-01
        60         1        2.771587e-01
        61         1       -4.270495e-01
        62         1       -3.391609e-01
        63         1       -3.404833e-01
        64         1        6.058505e-01
        65         1       -8.588300e-01
        66         1       -6.062887e-01
        67         1       -1.241064e+00
        68         1       -3.669762e-01
        69         1        1.579367e+00
        70         1       -6.562025e-01
        71         1        2.006415e+00
        72         1       -6.347377e-01
        73         1        4.654869e-01
        74         1        9.955614e-01
        75         1       -9.112698e-01
        76         1        5.281237e-01
        77         1        7.812386e-03
        78         1        3.579634e-01
        79         1       -4.769955e-01
        80         1       -1.584302e+00
        81         1       -2.783266e-02
        82         1        9.718744e-01
        83         1        2.038866e-01
        84         1       -7.194701e-01
        85         1        6.633475e-01
        86         1        1.696024e-01
        87         1       -1.417030e+00
        88         1        4.149239e-01
        89         1        1.804744e-01
        90         1        1.204693e+00
        91         1       -8.241420e-01
        92         1       -1.580264e+00
        93         1        3.636743e-01
        94         1        1.432292e+00
        95         1       -9.162931e-01
        96         1       -2.084922e+00
        97         1        5.183143e-01
        98         1       -1.743034e+00
        99         1        7.778881e-01
       100         1        2.487325e+00
         1         2       -9.938208e-02
         2         2       -9.033899e-01
         3         2        7.318437e-01
         4         2        1.749593e+00
         5         2       -1.163032e-01
         6         2       -2.703384e-01
         7         2       -6.023738e-01
         8         2       -1.271318e-01
         9         2       -9.064592e-01
        10         2       -1.275745e+00
        11         2       -1.160256e+00
        12         2       -3.715968e-01
        13         2        1.558688e+00
        14         2       -1.005611e+00
        15         2       -2.707006e-01
        16         2        2.076586e+00
        17         2       -2.963870e-01
        18         2        3.194436e-01
        19         2       -2.109190e+00
        20         2        8.064103e-01
        21         2        7.856296e-01
        22         2       -6.491287e-01
        23         2        4.790996e-01
        24         2        1.833050e+00
        25         2        4.553488e-01
        26         2        7.588380e-01
        27         2        2.307806e-01
        28         2       -1.549028e+00
        29         2        8.443794e-01
        30         2        7.805816e-02
        31         2       -5.646483e-01
        32         2       -2.569701e-01
        33         2       -5.078959e-01
        34         2        1.317709e-01
        35         2       -5.667523e-01
        36         2        2.208838e+00
        37         2       -1.519246e-01
        38         2       -5.198015e-01
        39         2        3.347705e-01
        40         2       -7.441151e-01
        41         2        3.258733e-01
        42         2       -7.411080e-01
        43         2        3.972437e-01
        44         2        3.119178e-01
        45         2        7.992594e-01
        46         2       -1.565048e-01
        47         2        8.534818e-01
        48         2       -1.799013e+00
        49         2        1.168123e+00
        50         2        1.677577e+00
        51         2        1.437527e+00
        52         2        2.584288e-02
        53         2        9.228147e-01
        54         2       -1.179307e+00
        55         2        2.797089e+00
        56         2        3.041577e-01
        57         2       -3.996976e-01
        58         2        4.157421e-01
        59         2       -5.731986e-01
        60         2       -1.305807e-01
        61         2       -2.599542e-01
        62         2       -9.834223e-01
        63         2        2.834348e-02
        64         2       -6.947589e-01
        65         2       -1.616887e-01
        66         2        1.301241e+00
        67         2       -1.002761e+00
        68         2        1.683354e+00
        69         2       -1.646613e-01
        70         2       -5.858213e-01
        71         2        2.429423e-01
        72         2       -1.389598e-02
        73         2        1.629466e+00
        74         2       -2.672660e-01
        75         2       -6.630588e-01
        76         2       -3.617641e-01
        77         2       -9.290260e-01
        78         2        1.112382e-01
        79         2       -6.622661e-01
        80         2        1.442257e-01
        81         2       -8.413782e-01
        82         2       -5.953916e-01
        83         2       -1.442227e+00
        84         2       -1.102363e+00
        85         2       -7.662810e-01
        86         2       -3.316820e-01
        87         2        1.535530e+00
        88         2        5.445350e-01
        89         2       -3.277164e-01
        90         2       -3.938792e-04
        91         2        1.966762e+00
        92         2        8.022998e-01
        93         2       -8.810479e-03
        94         2       -7.027506e-01
        95         2       -8.358943e-02
        96         2       -8.316534e-01
        97         2        4.275117e-01
        98         2       -1.418583e+00
        99         2       -1.948565e+00
       100         2        5.468078e-01
         1         3        1.508600e+00
         2         3       -2.172350e-02
         3         3        3.930403e+00
         4         3        4.451548e-01
         5         3       -5.491111e-01
         6         3       -6.493981e-02
         7         3       -2.404135e-02
         8         3        6.313690e-01
         9         3        5.515457e-01
        10         3       -7.411905e-01
        11         3        9.071653e-01
        12         3        1.715668e-03
        13         3       -7.644693e-01
        14         3       -1.636198e-01
        15         3        3.124204e-01
        16         3        7.851048e-01
        17         3       -1.530692e+00
        18         3        1.709674e+00
        19         3       -7.213703e-01
        20         3        2.500882e-01
        21         3        1.963077e+00
        22         3        9.911788e-01
        23         3       -2.056046e+00
        24         3        9.831171e-02
        25         3       -2.647291e-01
        26         3        1.491073e+00
        27         3       -6.629004e-01
        28         3       -5.058674e-01
        29         3        4.841383e-01
        30         3       -5.653911e-01
        31         3        6.026905e-01
        32         3       -4.088223e-01
        33         3       -9.986461e-01
        34         3        1.648071e-01
        35         3       -3.868239e-01
        36         3        1.396865e+00
        37         3       -2.309368e-02
        38         3        2.079527e-01
        39         3        9.694354e-01
        40         3       -1.215419e+00
        41         3        1.349367e+00
        42         3       -2.433739e-01
        43         3        5.348855e-02
        44         3        5.667437e-01
        45         3        6.367860e-01
        46         3        1.276971e+00
        47         3        2.784825e-01
        48         3       -1.813531e+00
        49         3       -2.234701e-01
        50         3        8.138269e-01
        51         3        1.585798e-01
        52         3       -9.741917e-01
        53         3        1.767842e-01
        54         3        4.418603e-01
        55         3       -2.287278e+00
        56         3        1.996969e+00
        57         3       -1.159063e+00
        58         3       -1.251913e+00
        59         3        2.895272e-01
        60         3       -1.247026e+00
        61         3       -7.518074e-01
        62         3        7.077961e-01
        63         3       -1.037489e+00
        64         3       -1.242876e+00
        65         3        3.996808e-01
        66         3        8.039478e-02
        67         3        6.020605e-01
        68         3       -1.569345e+00
        69         3        1.134239e+00
        70         3       -7.276308e-01
        71         3       -4.432507e-01
        72         3       -1.385016e+00
        73         3        2.339271e-01
        74         3        3.735007e-01
        75         3       -9.505379e-03
        76         3       -5.476689e-01
        77         3        1.219549e+00
        78         3       -8.850715e-01
        79         3        7.731989e-01
        80         3       -1.916010e+00
        81         3       -6.209357e-01
        82         3        9.997287e-01
        83         3        4.935399e-01
        84         3       -4.289717e-01
        85         3        8.307993e-01
        86         3       -1.206404e+00
        87         3       -1.859261e+00
        88         3       -6.985198e-01
        89         3       -6.018983e-01
        90         3       -2.420596e+00
        91         3        1.006068e+00
        92         3        1.005200e+00
        93         3       -3.103453e-02
        94         3        1.576136e+00
        95         3        6.493247e-01
        96         3        1.114456e+00
        97         3        2.640442e-01
        98         3        2.347509e-01
        99         3       -1.300299e+00
       100         3        8.864505e-01
         1         4        7.860616e-01
         2         4       -1.856575e-02
         3         4        1.656646e+00
         4         4       -9.512116e-01
         5         4        2.698285e+00
         6         4        1.191415e+00
         7         4       -7.936569e-01
         8         4        1.222670e-02
         9         4        6.659740e-01
        10         4        4.222753e-01
        11         4       -5.612864e-01
        12         4        7.118063e-02
        13         4       -3.910144e-01
        14         4       -7.513279e-01
        15         4        3.124399e-01
        16         4        9.805457e-01
        17         4        1.113609e+00
        18         4        8.624951e-01
        19         4       -1.971786e+00
        20         4       -8.182842e-01
        21         4        2.892914e-01
        22         4       -2.315869e+00
        23         4        6.996432e-01
        24         4        7.394867e-01
        25         4        1.561141e+00
        26         4        1.034845e+00
        27         4       -2.256081e+00
        28         4       -1.107801e+00
        29         4        6.811412e-01
        30         4       -1.134248e+00
        31         4        1.560622e+00
        32         4       -3.093316e-01
        33         4       -9.593340e-01
        34         4       -9.856936e-01
        35         4       -1.545815e+00
        36         4       -1.132958e+00
        37         4       -2.179045e+00
        38         4        1.203229e+00
        39         4       -3.816213e-01
        40         4       -7.900471e-01
        41         4       -7.392264e-01
        42         4       -1.382933e+00
        43         4        7.407975e-01
        44         4       -4.702678e-02
        45         4        8.128111e-01
        46         4        1.144146e+00
        47         4        9.837027e-01
        48         4       -3.582386e-01
        49         4        3.576056e-01
        50         4       -3.043077e-01
        51         4        1.348382e+00
        52         4        8.816146e-01
        53         4       -7.138271e-01
        54         4       -1.013945e+00
        55         4       -1.359681e+00
        56         4        3.728587e-01
        57         4        1.181413e+00
        58         4        1.300978e-01
        59         4       -1.115445e+00
        60         4        4.031070e-01
        61         4        1.582128e+00
        62         4       -5.306141e-01
        63         4        2.346159e+00
        64         4        7.569708e-01
        65         4       -3.304687e-01
        66         4        6.296788e-01
        67         4        1.041089e-01
        68         4        1.938465e+00
        69         4        2.040326e-01
        70         4        1.135064e+00
        71         4       -1.926159e+00
        72         4       -1.555386e-01
        73         4        6.814213e-01
        74         4       -8.581005e-01
        75         4       -4.506219e-02
        76         4        1.111767e+00
        77         4        7.257915e-01
        78         4       -2.691618e-01
        79         4       -1.865274e+00
        80         4        1.108965e+00
        81         4        3.281992e-02
        82         4        5.280179e-02
        83         4       -1.183488e+00
        84         4       -9.660099e-01
        85         4        8.965762e-01
        86         4        1.806603e+00
        87         4        5.612757e-01
        88         4        1.058880e+00
        89         4        1.369920e+00
        90         4       -9.581062e-01
        91         4       -2.259224e+00
        92         4       -4.185587e-01
        93         4       -1.673095e+00
        94         4       -9.037554e-01
        95         4       -4.216081e-01
        96         4        6.488162e-01
        97         4        7.289258e-01
        98         4       -1.389956e+00
        99         4        7.589929e-01
       100         4        7.243713e-01
         1         5        3.166224e-01
         2         5        1.216454e+00
         3         5       -6.480453e-01
         4         5        1.116314e+00
         5         5        1.278026e-02
         6         5        7.146622e-01
         7         5       -3.085269e-01
         8         5       -1.102772e+00
         9         5        5.070132e-01
        10         5        4.317815e-01
        11         5       -8.604544e-01
        12         5       -9.446864e-01
        13         5        8.086864e-01
        14         5        1.605224e-01
        15         5       -1.665571e-01
        16         5       -9.019491e-01
        17         5       -1.988661e+00
        18         5       -2.791548e-01
        19         5        2.360226e+00
        20         5        1.066931e+00
        21         5        6.191055e-01
        22         5       -4.823849e-01
        23         5       -1.128297e+00
        24         5       -4.102346e-01
        25         5        1.281160e+00
        26         5        1.744817e-01
        27         5        5.268027e-01
        28         5       -1.620049e-01
        29         5       -1.461741e+00
        30         5        1.574932e-01
        31         5       -7.317589e-01
        32         5       -2.442306e+00
        33         5       -6.236763e-01
        34         5        4.260209e-01
        35         5        1.381790e+00
        36         5       -3.771715e-01
        37         5        8.783505e-01
        38         5        1.081809e+00
        39         5        3.828034e-01
        40         5       -2.674244e-01
        41         5       -4.601834e-02
        42         5        1.586504e-01
        43         5       -1.373900e+00
        44         5       -8.091932e-01
        45         5        2.633535e-01
        46         5       -1.504213e-02
        47         5        7.436904e-03
        48         5       -7.967839e-01
        49         5       -8.309492e-01
        50         5        6.605046e-01
        51         5       -4.509391e-01
        52         5       -2.726836e-01
        53         5        4.714020e-01
        54         5       -5.137288e-01
        55         5       -6.301201e-01
        56         5        1.292919e+00
        57         5        8.023378e-01
        58         5        4.361328e-01
        59         5        7.201108e-01
        60         5        1.403868e+00
        61         5        2.645672e+00
        62         5       -7.847151e-01
        63         5        3.479078e-01
        64         5       -1.717981e-01
        65         5       -2.145792e+00
        66         5       -5.937648e-01
        67         5        4.378951e-01
        68         5        2.019945e+00
        69         5       -1.188926e+00
        70         5        1.037372e+00
        71         5        1.148619e-01
        72         5       -1.452455e+00
        73         5       -3.714673e-01
        74         5       -6.070561e-01
        75         5       -7.633955e-01
        76         5       -3.835589e-01
        77         5       -1.421795e+00
        78         5       -8.244564e-01
        79         5        7.210572e-01
        80         5       -1.948429e-01
        81         5        1.680082e+00
        82         5       -3.667842e-02
        83         5       -5.544721e-01
        84         5       -1.573245e-01
        85         5       -1.617394e+00
        86         5       -1.697125e-01
        87         5        2.565596e+00
        88         5       -1.300859e-01
        89         5       -5.246455e-01
        90         5        1.024398e+00
        91         5       -8.829182e-01
        92         5        2.454378e-01
        93         5       -6.477400e-01
        94         5        5.641003e-01
        95         5        5.413072e-01
        96         5        1.853202e+00
        97         5        3.445683e-02
        98         5       -3.515191e-01
        99         5        4.084659e-01
       100         5       -2.412613e+00
;

param theta:=
    1       -8.524424e-01
    2        4.440981e-01
    3        8.997849e-01
    4       -2.244116e-01
    5        1.063143e+00
;
param X_true:=
    1        6.461045e-01
    2        9.613078e-01
    3        3.483763e+00
    4        2.913359e+00
    5       -1.376845e+00
    6        1.412256e+00
    7       -1.434540e+00
    8        3.772936e-03
    9        1.732075e+00
   10       -3.465169e-01
   11       -1.593696e-01
   12       -2.109600e+00
   13        2.924371e+00
   14        2.287176e+00
   15       -1.504372e+00
   16        8.754351e-01
   17       -3.926655e+00
   18        1.892804e+00
   19        1.628178e+00
   20        1.984343e+00
   21        1.970176e+00
   22       -8.221991e-02
   23       -2.920952e+00
   24       -6.489005e-01
   25       -1.194737e-01
   26        8.009116e-01
   27        7.264377e-01
   28       -3.533565e-01
   29        6.607462e-01
   30        3.790262e-01
   31       -9.555325e-01
   32       -4.315043e+00
   33       -3.032479e+00
   34       -3.423041e-02
   35        1.283988e+00
   36        1.461995e+00
   37        1.682543e+00
   38        1.155504e-01
   39        1.578253e+00
   40        1.177421e-01
   41        2.028136e+00
   42        2.329081e-01
   43       -1.678113e+00
   44       -1.643489e-01
   45        8.332170e-01
   46        1.223351e+00
   47       -2.076669e-01
   48       -3.926888e+00
   49       -1.396094e+00
   50        1.317891e+00
   51       -7.509040e-01
   52       -6.019280e-01
   53        7.094615e-01
   54        8.803305e-01
   55       -2.454060e+00
   56        3.737705e+00
   57       -6.003485e-01
   58        1.088873e+00
   59        8.964496e-01
   60       -1.691572e-02
   61        2.029596e+00
   62       -2.273544e-01
   63       -7.878220e-01
   64       -2.296069e+00
   65       -1.186340e+00
   66        3.943476e-01
   67        1.595457e+00
   68        1.361503e+00
   69       -1.709196e+00
   70        4.935588e-01
   71       -1.448511e+00
   72       -2.219852e+00
   73       -1.125692e-02
   74       -1.085440e+00
   75       -3.263011e-01
   76       -1.763366e+00
   77       -9.975358e-01
   78       -1.867035e+00
   79        1.993764e+00
   80       -7.651203e-01
   81        8.692265e-01
   82       -2.448101e-01
   83       -6.940960e-01
   84       -2.113901e-01
   85       -2.080269e+00
   86       -1.964312e+00
   87        2.817974e+00
   88       -1.116098e+00
   89       -1.707282e+00
   90       -1.900824e+00
   91        2.050047e+00
   92        2.963786e+00
   93       -6.546764e-01
   94        6.851751e-01
   95        1.998993e+00
   96        4.236278e+00
   97       -1.413572e-01
   98        1.006819e+00
   99       -2.432047e+00
  100       -3.808752e+00
;
param X:=
    1        7.274940e-01
    2       -1.363850e-01
    3       -4.121078e-01
    4        3.014353e-01
    5        1.316797e+00
    6        4.665056e-02
    7        1.536764e+00
    8       -1.212791e+00
    9        1.732075e+00
   10        1.419566e+00
   11        4.313671e-01
   12       -2.109600e+00
   13       -3.700096e-01
   14       -6.422878e-02
   15        9.250894e-01
   16        2.081167e-02
   17       -4.087654e-01
   18       -1.781673e-01
   19        1.628178e+00
   20        1.974989e+00
   21        1.721266e+00
   22        1.808574e-01
   23        1.322586e-01
   24       -1.265524e+00
   25       -8.353757e-02
   26        8.009116e-01
   27        1.513207e+00
   28        2.030188e+00
   29        6.607462e-01
   30        8.882550e-01
   31       -9.555325e-01
   32       -9.205243e-01
   33        1.334792e-01
   34       -7.220570e-01
   35        7.166068e-02
   36        1.461995e+00
   37       -6.046279e-01
   38       -4.653395e-01
   39       -1.404713e+00
   40        6.925425e-01
   41        8.130177e-01
   42        2.329081e-01
   43        1.742619e+00
   44        1.536438e+00
   45        6.746334e-01
   46        2.798251e-01
   47       -2.076669e-01
   48       -3.926888e+00
   49        1.040211e+00
   50       -3.536735e-01
   51       -7.509040e-01
   52       -9.193380e-01
   53        2.002562e+00
   54       -2.296011e-01
   55        3.017164e-01
   56        2.303523e+00
   57       -3.893717e-01
   58        1.088873e+00
   59       -2.025946e-01
   60       -1.268099e+00
   61       -1.351014e-01
   62       -2.340252e+00
   63       -7.878220e-01
   64        1.616754e-01
   65       -2.688191e+00
   66       -5.474019e-02
   67       -7.060302e-01
   68        5.225809e-01
   69        8.052150e-01
   70       -1.208368e+00
   71        1.465406e-01
   72       -2.219852e+00
   73       -1.357560e+00
   74        2.129769e+00
   75       -8.386077e-01
   76       -7.220734e-01
   77       -9.975358e-01
   78       -1.081154e+00
   79        6.593553e-01
   80        9.390959e-01
   81       -6.715038e-02
   82       -7.246773e-01
   83       -6.940960e-01
   84        2.500421e-01
   85       -2.080269e+00
   86       -7.965862e-01
   87       -1.674826e+00
   88       -1.482670e+00
   89       -9.435767e-01
   90       -7.049511e-01
   91       -4.100695e-01
   92        2.963786e+00
   93        6.455489e-01
   94        4.628428e-01
   95        4.738527e-02
   96       -1.602240e+00
   97        1.047980e+00
   98        4.846355e-01
   99        1.296473e+00
  100        2.134660e-01
;
param outliervec:=
    1    1
    2    1
    3    1
    4    1
    5    1
    6    1
    7    1
    8    1
    9    0
   10    1
   11    1
   12    0
   13    1
   14    1
   15    1
   16    1
   17    1
   18    1
   19    0
   20    1
   21    1
   22    1
   23    1
   24    1
   25    1
   26    0
   27    1
   28    1
   29    0
   30    1
   31    0
   32    1
   33    1
   34    1
   35    1
   36    0
   37    1
   38    1
   39    1
   40    1
   41    1
   42    0
   43    1
   44    1
   45    1
   46    1
   47    0
   48    0
   49    1
   50    1
   51    0
   52    1
   53    1
   54    1
   55    1
   56    1
   57    1
   58    0
   59    1
   60    1
   61    1
   62    1
   63    0
   64    1
   65    1
   66    1
   67    1
   68    1
   69    1
   70    1
   71    1
   72    0
   73    1
   74    1
   75    1
   76    1
   77    0
   78    1
   79    1
   80    1
   81    1
   82    1
   83    0
   84    1
   85    0
   86    1
   87    1
   88    1
   89    1
   90    1
   91    1
   92    0
   93    1
   94    1
   95    1
   96    1
   97    1
   98    1
   99    1
  100    1
;